80 44 1  1 
10 5 1  1 
70 42 1  1 
40 24 1  1 
30 19 1  1 
50 30 1  1 
40 22 1  1 
20 12 1  1 
60 36 1  1 
90 50 1  1 
60 37 1  1 
10 6 1  1 
30 17 1  1 
60 33 1  1 
20 11 1  1 
40 25 1  1 
100 61 1  1 
90 50 1  1 
70 37 1  1 
30 19 1  1 
70 44 1  1 
50 27 1  1 
50 29 1  1 
90 54 1  1 
10 6 1  1 
50 28 1  1 
10 6 1  1 
70 44 1  1 
50 28 1  1 
90 51 1  1 
80 45 1  1 
20 11 1  1 
60 37 1  1 
10 6 1  1 
30 18 1  1 
30 18 1  1 
40 24 1  1 
40 23 1  1 
60 34 1  1 
40 24 1  1 
70 43 1  1 
10 6 1  1 
60 36 1  1 
20 11 1  1 
20 12 1  1 
100 58 1  1 
70 42 1  1 
10 6 1  1 
60 36 1  1 
60 36 1  1 
90 51 1  1 
60 35 1  1 
100 61 1  1 
100 59 1  1 
30 17 1  1 
20 13 1  1 
90 51 1  1 
20 11 1  1 
80 46 1  1 
80 47 1  1 
30 20 1  1 
60 37 1  1 
100 54 1  1 
20 11 1  1 
100 56 1  1 
40 23 1  1 
50 29 1  1 
100 60 1  1 
50 27 1  1 
50 28 1  1 
70 42 1  1 
20 10 1  1 
100 53 1  1 
70 42 1  1 
80 46 1  1 
30 18 1  1 
10 5 1  1 
40 23 1  1 
90 52 1  1 
30 17 1  1 
40 22 1  1 
70 40 1  1 
10 6 1  1 
40 24 1  1 
20 12 1  1 
90 51 1  1 
30 18 1  1 
80 43 1  1 
50 28 1  1 
70 41 1  1 
80 45 1  1 
100 56 1  1 
50 27 1  1 
80 44 1  1 
80 49 1  1 
90 52 1  1 
100 60 1  1 
10 7 1  1 
90 51 1  1 
80 48 1  1 
